%%% static parameters %%%
timespan = 1;
Fact = [4];
Distr1 = [15];
Distr2 = [30];
Clients_N = [1000];
Demand_W = [15];
Lt0 = [4];
Lt1 = [4];
SS_ = [0.85];
DS_D = [8];
K = [200];
MA = [500];
%%% dynamic parameters %%%
lost_ratio_sales_ret_th = 0.36545484332162004;
lost_ratio_sales_ret_w = 74;
lost_ratio_sales_dis_th = 0.6355265676430066;
lost_ratio_sales_dis_w = 90;
lost_ratio_sales_fac_th = 0.2940649117592883;
lost_ratio_sales_fac_w = 11;
stock_customer_MA_mean_relative_th = 0.4286992630760914;
stock_customer_MA_mean_relative_w = 43;
stock_distributor_MA_mean_relative_th = 0.8830196727504462;
stock_distributor_MA_mean_relative_w = 85;
stock_retailer_MA_mean_relative_th = 0.5668842066365811;
stock_retailer_MA_mean_relative_w = 68;
stock_factory_MA_mean_relative_th = 0.8165978088131827;
stock_factory_MA_mean_relative_w = 36;
